experiment/data/hgs-res/Vrp-Set-X-n162/Vrp-Set-X-n162-hgs/0.hgs1.vrp
NAME : 0
COMMENT : CVRP Instance
TYPE : CVRP
DIMENSION : 162
EDGE_WEIGHT_TYPE : EUC_2D
CAPACITY : 1174
NODE_COORD_SECTION
1	500.0	500.0
2	300.0	71.0
3	434.0	4.0
4	257.0	798.0
5	718.0	17.0
6	879.0	206.0
7	929.0	330.0
8	353.0	793.0
9	389.0	540.0
10	202.0	55.0
11	417.0	253.0
12	921.0	572.0
13	94.0	788.0
14	870.0	327.0
15	281.0	124.0
16	411.0	288.0
17	882.0	116.0
18	307.0	240.0
19	359.0	935.0
20	352.0	858.0
21	502.0	776.0
22	269.0	33.0
23	440.0	814.0
24	850.0	461.0
25	909.0	404.0
26	339.0	458.0
27	767.0	535.0
28	86.0	47.0
29	758.0	532.0
30	426.0	282.0
31	534.0	10.0
32	826.0	830.0
33	911.0	79.0
34	270.0	791.0
35	391.0	794.0
36	908.0	787.0
37	929.0	858.0
38	938.0	281.0
39	941.0	579.0
40	752.0	162.0
41	579.0	68.0
42	323.0	570.0
43	238.0	700.0
44	853.0	970.0
45	329.0	805.0
46	651.0	486.0
47	291.0	631.0
48	286.0	481.0
49	855.0	547.0
50	972.0	378.0
51	561.0	490.0
52	205.0	741.0
53	528.0	672.0
54	664.0	605.0
55	462.0	532.0
56	340.0	54.0
57	929.0	941.0
58	936.0	46.0
59	864.0	654.0
60	501.0	495.0
61	339.0	10.0
62	324.0	595.0
63	585.0	893.0
64	73.0	401.0
65	244.0	926.0
66	190.0	659.0
67	900.0	929.0
68	525.0	878.0
69	832.0	622.0
70	228.0	662.0
71	36.0	578.0
72	897.0	292.0
73	492.0	426.0
74	958.0	546.0
75	674.0	303.0
76	312.0	781.0
77	320.0	557.0
78	226.0	264.0
79	446.0	702.0
80	470.0	746.0
81	613.0	620.0
82	710.0	289.0
83	439.0	15.0
84	148.0	352.0
85	371.0	115.0
86	414.0	108.0
87	693.0	626.0
88	703.0	31.0
89	798.0	932.0
90	294.0	172.0
91	710.0	588.0
92	701.0	370.0
93	620.0	270.0
94	632.0	147.0
95	909.0	889.0
96	745.0	985.0
97	771.0	946.0
98	248.0	178.0
99	265.0	408.0
100	808.0	699.0
101	867.0	883.0
102	725.0	58.0
103	688.0	875.0
104	546.0	149.0
105	108.0	303.0
106	401.0	225.0
107	824.0	878.0
108	336.0	115.0
109	683.0	219.0
110	428.0	19.0
111	407.0	68.0
112	691.0	745.0
113	624.0	46.0
114	6.0	539.0
115	652.0	923.0
116	513.0	262.0
117	639.0	753.0
118	112.0	114.0
119	478.0	46.0
120	440.0	219.0
121	780.0	270.0
122	426.0	121.0
123	354.0	105.0
124	885.0	963.0
125	403.0	32.0
126	617.0	230.0
127	370.0	169.0
128	403.0	386.0
129	392.0	52.0
130	769.0	967.0
131	811.0	683.0
132	968.0	26.0
133	644.0	82.0
134	339.0	122.0
135	413.0	22.0
136	459.0	198.0
137	643.0	391.0
138	733.0	200.0
139	348.0	158.0
140	361.0	229.0
141	726.0	749.0
142	480.0	250.0
143	837.0	983.0
144	384.0	134.0
145	427.0	197.0
146	731.0	579.0
147	741.0	135.0
148	442.0	105.0
149	421.0	23.0
150	315.0	178.0
151	676.0	530.0
152	729.0	107.0
153	668.0	471.0
154	391.0	79.0
155	715.0	728.0
156	592.0	325.0
157	542.0	296.0
158	607.0	43.0
159	727.0	283.0
160	449.0	102.0
161	394.0	101.0
162	223.0	283.0
DEMAND_SECTION
1	0
2	60
3	88
4	74
5	56
6	95
7	95
8	83
9	94
10	93
11	79
12	61
13	83
14	68
15	86
16	96
17	75
18	67
19	74
20	92
21	71
22	92
23	74
24	82
25	88
26	95
27	69
28	100
29	91
30	83
31	78
32	63
33	88
34	84
35	59
36	77
37	89
38	74
39	74
40	85
41	71
42	72
43	61
44	99
45	65
46	88
47	75
48	82
49	100
50	96
51	89
52	97
53	52
54	57
55	54
56	64
57	78
58	67
59	80
60	85
61	83
62	54
63	68
64	80
65	76
66	100
67	68
68	84
69	71
70	65
71	86
72	53
73	57
74	83
75	62
76	95
77	84
78	63
79	59
80	98
81	100
82	57
83	66
84	79
85	66
86	87
87	53
88	99
89	72
90	87
91	58
92	78
93	68
94	60
95	66
96	86
97	61
98	91
99	64
100	90
101	69
102	73
103	55
104	59
105	94
106	58
107	82
108	96
109	51
110	52
111	65
112	61
113	65
114	85
115	56
116	83
117	76
118	89
119	100
120	56
121	60
122	89
123	57
124	72
125	59
126	59
127	99
128	51
129	80
130	89
131	100
132	91
133	96
134	57
135	59
136	74
137	69
138	81
139	73
140	96
141	83
142	63
143	68
144	96
145	86
146	62
147	62
148	54
149	98
150	70
151	69
152	57
153	81
154	53
155	78
156	64
157	72
158	59
159	92
160	96
161	73
162	78
DEPOT_SECTION
1
-1
EOF
